c Standarized MaxSat Instance
c{
c "sha1sum": "363faaad98c91336f2c066016d95ad92b3513c3a",
c "nvars": 60,
c "ncls": 1120,
c "nhards": 0,
c "nhard_len_stats":
c    { "min": 0, "max": 0, "ave": 0.00,
c      "stddev": 0.00 },
c "nsofts": 1120,
c "nsoft_len_stats":
c    { "min": 2, "max": 2, "ave": 2.00,
c      "stddev": 0.00 },
c "nsoft_wts": 10,
c "soft_wt_stats":
c    { "min": 1, "max": 10, "ave": 5.65,
c      "stddev": 2.81 }
c}
c------------------------------------------------------------
c Generated after 1 tries
c Graph with 60 nodes and 560 edges, Max edges:1770
p wcnf 60 1120 6331
9 1 6 0
9 -1 -6 0
4 1 8 0
4 -1 -8 0
8 1 9 0
8 -1 -9 0
8 1 10 0
8 -1 -10 0
10 1 13 0
10 -1 -13 0
2 1 19 0
2 -1 -19 0
4 1 22 0
4 -1 -22 0
8 1 23 0
8 -1 -23 0
3 1 26 0
3 -1 -26 0
6 1 33 0
6 -1 -33 0
5 1 35 0
5 -1 -35 0
7 1 38 0
7 -1 -38 0
4 1 39 0
4 -1 -39 0
6 1 41 0
6 -1 -41 0
10 1 45 0
10 -1 -45 0
10 1 47 0
10 -1 -47 0
7 1 51 0
7 -1 -51 0
8 1 52 0
8 -1 -52 0
2 1 59 0
2 -1 -59 0
7 2 4 0
7 -2 -4 0
1 2 5 0
1 -2 -5 0
3 2 12 0
3 -2 -12 0
2 2 13 0
2 -2 -13 0
9 2 14 0
9 -2 -14 0
2 2 15 0
2 -2 -15 0
5 2 16 0
5 -2 -16 0
2 2 21 0
2 -2 -21 0
2 2 22 0
2 -2 -22 0
10 2 24 0
10 -2 -24 0
3 2 29 0
3 -2 -29 0
6 2 33 0
6 -2 -33 0
9 2 34 0
9 -2 -34 0
7 2 38 0
7 -2 -38 0
3 2 40 0
3 -2 -40 0
7 2 42 0
7 -2 -42 0
6 2 45 0
6 -2 -45 0
5 2 46 0
5 -2 -46 0
10 2 47 0
10 -2 -47 0
3 2 48 0
3 -2 -48 0
8 2 49 0
8 -2 -49 0
6 2 51 0
6 -2 -51 0
8 2 52 0
8 -2 -52 0
5 2 57 0
5 -2 -57 0
9 3 6 0
9 -3 -6 0
3 3 7 0
3 -3 -7 0
4 3 24 0
4 -3 -24 0
9 3 25 0
9 -3 -25 0
10 3 27 0
10 -3 -27 0
1 3 32 0
1 -3 -32 0
10 3 33 0
10 -3 -33 0
6 3 35 0
6 -3 -35 0
1 3 36 0
1 -3 -36 0
2 3 40 0
2 -3 -40 0
7 3 43 0
7 -3 -43 0
9 3 44 0
9 -3 -44 0
4 3 45 0
4 -3 -45 0
1 3 49 0
1 -3 -49 0
1 3 54 0
1 -3 -54 0
5 3 56 0
5 -3 -56 0
1 3 60 0
1 -3 -60 0
3 4 18 0
3 -4 -18 0
10 4 43 0
10 -4 -43 0
10 4 46 0
10 -4 -46 0
9 4 49 0
9 -4 -49 0
3 4 51 0
3 -4 -51 0
6 4 53 0
6 -4 -53 0
4 4 55 0
4 -4 -55 0
8 4 57 0
8 -4 -57 0
6 4 59 0
6 -4 -59 0
7 5 7 0
7 -5 -7 0
6 5 9 0
6 -5 -9 0
1 5 12 0
1 -5 -12 0
5 5 13 0
5 -5 -13 0
10 5 20 0
10 -5 -20 0
10 5 21 0
10 -5 -21 0
8 5 24 0
8 -5 -24 0
3 5 30 0
3 -5 -30 0
8 5 31 0
8 -5 -31 0
7 5 35 0
7 -5 -35 0
4 5 38 0
4 -5 -38 0
7 5 41 0
7 -5 -41 0
2 5 42 0
2 -5 -42 0
5 5 51 0
5 -5 -51 0
9 5 52 0
9 -5 -52 0
9 5 54 0
9 -5 -54 0
4 5 58 0
4 -5 -58 0
3 5 60 0
3 -5 -60 0
9 6 15 0
9 -6 -15 0
4 6 20 0
4 -6 -20 0
7 6 23 0
7 -6 -23 0
10 6 27 0
10 -6 -27 0
6 6 31 0
6 -6 -31 0
7 6 34 0
7 -6 -34 0
9 6 37 0
9 -6 -37 0
5 6 41 0
5 -6 -41 0
10 6 44 0
10 -6 -44 0
4 6 47 0
4 -6 -47 0
9 6 50 0
9 -6 -50 0
7 6 55 0
7 -6 -55 0
10 6 56 0
10 -6 -56 0
5 6 58 0
5 -6 -58 0
3 6 60 0
3 -6 -60 0
10 7 11 0
10 -7 -11 0
10 7 15 0
10 -7 -15 0
2 7 21 0
2 -7 -21 0
9 7 25 0
9 -7 -25 0
7 7 29 0
7 -7 -29 0
5 7 31 0
5 -7 -31 0
7 7 34 0
7 -7 -34 0
3 7 37 0
3 -7 -37 0
8 7 38 0
8 -7 -38 0
4 7 39 0
4 -7 -39 0
5 7 52 0
5 -7 -52 0
3 7 53 0
3 -7 -53 0
2 7 54 0
2 -7 -54 0
3 7 57 0
3 -7 -57 0
6 7 58 0
6 -7 -58 0
5 8 10 0
5 -8 -10 0
2 8 14 0
2 -8 -14 0
10 8 15 0
10 -8 -15 0
2 8 16 0
2 -8 -16 0
2 8 18 0
2 -8 -18 0
5 8 23 0
5 -8 -23 0
8 8 24 0
8 -8 -24 0
10 8 25 0
10 -8 -25 0
10 8 27 0
10 -8 -27 0
7 8 29 0
7 -8 -29 0
4 8 32 0
4 -8 -32 0
8 8 36 0
8 -8 -36 0
4 8 38 0
4 -8 -38 0
3 8 42 0
3 -8 -42 0
3 8 43 0
3 -8 -43 0
6 8 44 0
6 -8 -44 0
3 8 45 0
3 -8 -45 0
2 8 49 0
2 -8 -49 0
8 8 54 0
8 -8 -54 0
2 8 57 0
2 -8 -57 0
8 8 59 0
8 -8 -59 0
2 9 10 0
2 -9 -10 0
8 9 11 0
8 -9 -11 0
1 9 12 0
1 -9 -12 0
10 9 15 0
10 -9 -15 0
1 9 16 0
1 -9 -16 0
6 9 20 0
6 -9 -20 0
2 9 24 0
2 -9 -24 0
3 9 29 0
3 -9 -29 0
8 9 31 0
8 -9 -31 0
8 9 35 0
8 -9 -35 0
7 9 36 0
7 -9 -36 0
10 9 40 0
10 -9 -40 0
7 9 41 0
7 -9 -41 0
8 9 43 0
8 -9 -43 0
1 9 47 0
1 -9 -47 0
2 9 51 0
2 -9 -51 0
6 9 52 0
6 -9 -52 0
1 9 58 0
1 -9 -58 0
1 9 59 0
1 -9 -59 0
3 10 15 0
3 -10 -15 0
5 10 19 0
5 -10 -19 0
9 10 20 0
9 -10 -20 0
6 10 24 0
6 -10 -24 0
8 10 33 0
8 -10 -33 0
1 10 37 0
1 -10 -37 0
2 10 38 0
2 -10 -38 0
10 10 48 0
10 -10 -48 0
3 10 49 0
3 -10 -49 0
9 10 50 0
9 -10 -50 0
2 10 54 0
2 -10 -54 0
10 10 57 0
10 -10 -57 0
1 11 16 0
1 -11 -16 0
9 11 21 0
9 -11 -21 0
1 11 23 0
1 -11 -23 0
1 11 30 0
1 -11 -30 0
10 11 35 0
10 -11 -35 0
6 11 36 0
6 -11 -36 0
2 11 37 0
2 -11 -37 0
2 11 38 0
2 -11 -38 0
4 11 51 0
4 -11 -51 0
10 11 53 0
10 -11 -53 0
9 11 55 0
9 -11 -55 0
4 12 15 0
4 -12 -15 0
6 12 17 0
6 -12 -17 0
6 12 20 0
6 -12 -20 0
5 12 32 0
5 -12 -32 0
7 12 36 0
7 -12 -36 0
1 12 38 0
1 -12 -38 0
6 12 40 0
6 -12 -40 0
8 12 41 0
8 -12 -41 0
4 12 46 0
4 -12 -46 0
10 12 47 0
10 -12 -47 0
6 12 50 0
6 -12 -50 0
9 12 56 0
9 -12 -56 0
8 12 59 0
8 -12 -59 0
7 12 60 0
7 -12 -60 0
1 13 14 0
1 -13 -14 0
8 13 16 0
8 -13 -16 0
9 13 27 0
9 -13 -27 0
10 13 29 0
10 -13 -29 0
9 13 30 0
9 -13 -30 0
9 13 34 0
9 -13 -34 0
10 13 35 0
10 -13 -35 0
8 13 36 0
8 -13 -36 0
10 13 37 0
10 -13 -37 0
10 13 54 0
10 -13 -54 0
7 13 57 0
7 -13 -57 0
5 14 16 0
5 -14 -16 0
2 14 18 0
2 -14 -18 0
9 14 20 0
9 -14 -20 0
9 14 23 0
9 -14 -23 0
1 14 24 0
1 -14 -24 0
7 14 26 0
7 -14 -26 0
3 14 29 0
3 -14 -29 0
7 14 30 0
7 -14 -30 0
3 14 31 0
3 -14 -31 0
8 14 34 0
8 -14 -34 0
4 14 40 0
4 -14 -40 0
4 14 44 0
4 -14 -44 0
3 14 51 0
3 -14 -51 0
1 14 56 0
1 -14 -56 0
7 14 57 0
7 -14 -57 0
3 14 59 0
3 -14 -59 0
7 15 17 0
7 -15 -17 0
6 15 20 0
6 -15 -20 0
10 15 26 0
10 -15 -26 0
3 15 30 0
3 -15 -30 0
6 15 34 0
6 -15 -34 0
8 15 36 0
8 -15 -36 0
2 15 37 0
2 -15 -37 0
5 15 39 0
5 -15 -39 0
6 15 47 0
6 -15 -47 0
10 15 49 0
10 -15 -49 0
5 15 52 0
5 -15 -52 0
4 15 56 0
4 -15 -56 0
9 15 57 0
9 -15 -57 0
5 15 58 0
5 -15 -58 0
1 16 20 0
1 -16 -20 0
4 16 21 0
4 -16 -21 0
6 16 22 0
6 -16 -22 0
9 16 23 0
9 -16 -23 0
3 16 30 0
3 -16 -30 0
7 16 32 0
7 -16 -32 0
5 16 34 0
5 -16 -34 0
5 16 35 0
5 -16 -35 0
4 16 38 0
4 -16 -38 0
8 16 42 0
8 -16 -42 0
2 16 44 0
2 -16 -44 0
7 16 47 0
7 -16 -47 0
1 16 48 0
1 -16 -48 0
5 16 50 0
5 -16 -50 0
7 16 51 0
7 -16 -51 0
7 16 55 0
7 -16 -55 0
7 16 57 0
7 -16 -57 0
4 16 59 0
4 -16 -59 0
2 17 22 0
2 -17 -22 0
7 17 25 0
7 -17 -25 0
7 17 34 0
7 -17 -34 0
8 17 37 0
8 -17 -37 0
4 17 48 0
4 -17 -48 0
8 17 50 0
8 -17 -50 0
3 17 59 0
3 -17 -59 0
10 18 19 0
10 -18 -19 0
7 18 24 0
7 -18 -24 0
7 18 26 0
7 -18 -26 0
3 18 32 0
3 -18 -32 0
6 18 35 0
6 -18 -35 0
1 18 41 0
1 -18 -41 0
3 18 43 0
3 -18 -43 0
9 18 45 0
9 -18 -45 0
7 18 47 0
7 -18 -47 0
1 18 50 0
1 -18 -50 0
2 18 54 0
2 -18 -54 0
4 18 55 0
4 -18 -55 0
6 18 58 0
6 -18 -58 0
6 18 60 0
6 -18 -60 0
7 19 23 0
7 -19 -23 0
3 19 24 0
3 -19 -24 0
8 19 31 0
8 -19 -31 0
3 19 33 0
3 -19 -33 0
4 19 36 0
4 -19 -36 0
2 19 39 0
2 -19 -39 0
10 19 47 0
10 -19 -47 0
1 19 51 0
1 -19 -51 0
9 19 56 0
9 -19 -56 0
4 20 24 0
4 -20 -24 0
2 20 27 0
2 -20 -27 0
5 20 28 0
5 -20 -28 0
10 20 33 0
10 -20 -33 0
10 20 34 0
10 -20 -34 0
8 20 36 0
8 -20 -36 0
7 20 45 0
7 -20 -45 0
2 20 48 0
2 -20 -48 0
7 20 49 0
7 -20 -49 0
4 20 50 0
4 -20 -50 0
8 20 51 0
8 -20 -51 0
10 20 52 0
10 -20 -52 0
10 20 53 0
10 -20 -53 0
9 20 54 0
9 -20 -54 0
3 20 58 0
3 -20 -58 0
8 20 60 0
8 -20 -60 0
6 21 22 0
6 -21 -22 0
3 21 23 0
3 -21 -23 0
10 21 25 0
10 -21 -25 0
10 21 26 0
10 -21 -26 0
9 21 28 0
9 -21 -28 0
5 21 38 0
5 -21 -38 0
6 21 39 0
6 -21 -39 0
2 21 40 0
2 -21 -40 0
3 21 41 0
3 -21 -41 0
9 21 43 0
9 -21 -43 0
5 21 44 0
5 -21 -44 0
5 21 47 0
5 -21 -47 0
9 21 48 0
9 -21 -48 0
5 21 51 0
5 -21 -51 0
3 21 60 0
3 -21 -60 0
2 22 24 0
2 -22 -24 0
7 22 25 0
7 -22 -25 0
8 22 26 0
8 -22 -26 0
2 22 27 0
2 -22 -27 0
7 22 29 0
7 -22 -29 0
5 22 31 0
5 -22 -31 0
9 22 39 0
9 -22 -39 0
8 22 41 0
8 -22 -41 0
2 22 42 0
2 -22 -42 0
3 22 44 0
3 -22 -44 0
5 22 55 0
5 -22 -55 0
2 22 56 0
2 -22 -56 0
2 22 57 0
2 -22 -57 0
4 22 58 0
4 -22 -58 0
4 23 25 0
4 -23 -25 0
10 23 27 0
10 -23 -27 0
10 23 30 0
10 -23 -30 0
7 23 32 0
7 -23 -32 0
9 23 38 0
9 -23 -38 0
9 23 43 0
9 -23 -43 0
5 23 44 0
5 -23 -44 0
4 23 51 0
4 -23 -51 0
4 23 52 0
4 -23 -52 0
7 23 53 0
7 -23 -53 0
7 23 55 0
7 -23 -55 0
3 23 56 0
3 -23 -56 0
2 23 57 0
2 -23 -57 0
1 24 27 0
1 -24 -27 0
2 24 28 0
2 -24 -28 0
7 24 34 0
7 -24 -34 0
4 24 35 0
4 -24 -35 0
3 24 39 0
3 -24 -39 0
4 24 41 0
4 -24 -41 0
1 24 42 0
1 -24 -42 0
5 24 46 0
5 -24 -46 0
10 24 49 0
10 -24 -49 0
6 24 50 0
6 -24 -50 0
3 24 54 0
3 -24 -54 0
7 24 60 0
7 -24 -60 0
8 25 27 0
8 -25 -27 0
5 25 28 0
5 -25 -28 0
2 25 30 0
2 -25 -30 0
9 25 31 0
9 -25 -31 0
7 25 33 0
7 -25 -33 0
6 25 34 0
6 -25 -34 0
3 25 46 0
3 -25 -46 0
6 25 47 0
6 -25 -47 0
5 25 52 0
5 -25 -52 0
9 25 53 0
9 -25 -53 0
4 25 59 0
4 -25 -59 0
3 25 60 0
3 -25 -60 0
4 26 29 0
4 -26 -29 0
8 26 33 0
8 -26 -33 0
7 26 37 0
7 -26 -37 0
10 26 40 0
10 -26 -40 0
4 26 41 0
4 -26 -41 0
9 26 42 0
9 -26 -42 0
2 26 48 0
2 -26 -48 0
5 26 49 0
5 -26 -49 0
1 26 52 0
1 -26 -52 0
8 26 53 0
8 -26 -53 0
8 27 28 0
8 -27 -28 0
3 27 31 0
3 -27 -31 0
2 27 39 0
2 -27 -39 0
9 27 40 0
9 -27 -40 0
8 27 41 0
8 -27 -41 0
1 27 45 0
1 -27 -45 0
5 27 47 0
5 -27 -47 0
10 27 52 0
10 -27 -52 0
8 27 55 0
8 -27 -55 0
3 27 58 0
3 -27 -58 0
5 27 60 0
5 -27 -60 0
9 28 31 0
9 -28 -31 0
1 28 32 0
1 -28 -32 0
1 28 33 0
1 -28 -33 0
4 28 35 0
4 -28 -35 0
4 28 39 0
4 -28 -39 0
7 28 41 0
7 -28 -41 0
9 28 44 0
9 -28 -44 0
2 28 45 0
2 -28 -45 0
1 28 46 0
1 -28 -46 0
1 28 54 0
1 -28 -54 0
5 28 59 0
5 -28 -59 0
8 28 60 0
8 -28 -60 0
7 29 42 0
7 -29 -42 0
5 29 43 0
5 -29 -43 0
2 29 45 0
2 -29 -45 0
6 29 48 0
6 -29 -48 0
6 29 50 0
6 -29 -50 0
6 29 51 0
6 -29 -51 0
6 29 54 0
6 -29 -54 0
4 29 57 0
4 -29 -57 0
4 29 59 0
4 -29 -59 0
9 30 33 0
9 -30 -33 0
5 30 35 0
5 -30 -35 0
2 30 38 0
2 -30 -38 0
7 30 40 0
7 -30 -40 0
6 30 42 0
6 -30 -42 0
7 30 45 0
7 -30 -45 0
6 30 47 0
6 -30 -47 0
3 30 52 0
3 -30 -52 0
9 30 58 0
9 -30 -58 0
1 31 33 0
1 -31 -33 0
1 31 35 0
1 -31 -35 0
10 31 37 0
10 -31 -37 0
2 31 38 0
2 -31 -38 0
5 31 40 0
5 -31 -40 0
3 31 41 0
3 -31 -41 0
9 31 45 0
9 -31 -45 0
3 31 49 0
3 -31 -49 0
4 31 50 0
4 -31 -50 0
9 31 51 0
9 -31 -51 0
4 31 56 0
4 -31 -56 0
9 31 58 0
9 -31 -58 0
7 31 59 0
7 -31 -59 0
1 31 60 0
1 -31 -60 0
3 32 39 0
3 -32 -39 0
8 32 42 0
8 -32 -42 0
7 32 43 0
7 -32 -43 0
9 32 44 0
9 -32 -44 0
4 32 45 0
4 -32 -45 0
3 32 51 0
3 -32 -51 0
2 32 56 0
2 -32 -56 0
7 32 57 0
7 -32 -57 0
2 33 38 0
2 -33 -38 0
7 33 42 0
7 -33 -42 0
8 33 43 0
8 -33 -43 0
8 33 44 0
8 -33 -44 0
3 33 48 0
3 -33 -48 0
5 33 55 0
5 -33 -55 0
4 33 58 0
4 -33 -58 0
5 33 59 0
5 -33 -59 0
3 34 39 0
3 -34 -39 0
4 34 46 0
4 -34 -46 0
6 34 58 0
6 -34 -58 0
2 34 59 0
2 -34 -59 0
6 34 60 0
6 -34 -60 0
1 35 37 0
1 -35 -37 0
4 35 44 0
4 -35 -44 0
4 35 48 0
4 -35 -48 0
4 35 50 0
4 -35 -50 0
8 35 60 0
8 -35 -60 0
3 36 37 0
3 -36 -37 0
7 36 38 0
7 -36 -38 0
6 36 40 0
6 -36 -40 0
10 36 41 0
10 -36 -41 0
7 36 42 0
7 -36 -42 0
9 36 45 0
9 -36 -45 0
7 36 51 0
7 -36 -51 0
4 36 53 0
4 -36 -53 0
7 36 54 0
7 -36 -54 0
1 36 58 0
1 -36 -58 0
6 36 59 0
6 -36 -59 0
9 37 39 0
9 -37 -39 0
7 37 40 0
7 -37 -40 0
7 37 41 0
7 -37 -41 0
6 37 42 0
6 -37 -42 0
5 37 51 0
5 -37 -51 0
4 37 52 0
4 -37 -52 0
8 37 54 0
8 -37 -54 0
9 37 56 0
9 -37 -56 0
7 37 57 0
7 -37 -57 0
2 37 58 0
2 -37 -58 0
1 38 44 0
1 -38 -44 0
1 38 46 0
1 -38 -46 0
7 38 50 0
7 -38 -50 0
2 38 55 0
2 -38 -55 0
7 38 58 0
7 -38 -58 0
8 39 42 0
8 -39 -42 0
6 39 45 0
6 -39 -45 0
1 39 47 0
1 -39 -47 0
1 39 51 0
1 -39 -51 0
4 39 54 0
4 -39 -54 0
3 39 56 0
3 -39 -56 0
7 40 41 0
7 -40 -41 0
9 40 42 0
9 -40 -42 0
2 40 43 0
2 -40 -43 0
4 40 45 0
4 -40 -45 0
7 40 47 0
7 -40 -47 0
9 40 48 0
9 -40 -48 0
7 40 56 0
7 -40 -56 0
4 40 58 0
4 -40 -58 0
9 41 46 0
9 -41 -46 0
2 41 48 0
2 -41 -48 0
2 41 50 0
2 -41 -50 0
6 41 51 0
6 -41 -51 0
9 41 53 0
9 -41 -53 0
7 42 46 0
7 -42 -46 0
10 42 49 0
10 -42 -49 0
2 42 50 0
2 -42 -50 0
4 42 51 0
4 -42 -51 0
8 42 52 0
8 -42 -52 0
9 42 54 0
9 -42 -54 0
6 42 55 0
6 -42 -55 0
8 42 58 0
8 -42 -58 0
10 43 47 0
10 -43 -47 0
3 43 48 0
3 -43 -48 0
10 43 53 0
10 -43 -53 0
6 43 55 0
6 -43 -55 0
10 43 56 0
10 -43 -56 0
5 43 58 0
5 -43 -58 0
6 44 46 0
6 -44 -46 0
10 44 52 0
10 -44 -52 0
8 44 55 0
8 -44 -55 0
9 44 57 0
9 -44 -57 0
6 44 60 0
6 -44 -60 0
7 45 49 0
7 -45 -49 0
10 45 50 0
10 -45 -50 0
10 45 51 0
10 -45 -51 0
4 45 55 0
4 -45 -55 0
9 45 56 0
9 -45 -56 0
6 45 57 0
6 -45 -57 0
7 45 58 0
7 -45 -58 0
8 46 49 0
8 -46 -49 0
8 46 51 0
8 -46 -51 0
8 46 52 0
8 -46 -52 0
3 46 53 0
3 -46 -53 0
7 46 56 0
7 -46 -56 0
5 46 60 0
5 -46 -60 0
2 47 49 0
2 -47 -49 0
8 47 55 0
8 -47 -55 0
9 47 60 0
9 -47 -60 0
9 48 52 0
9 -48 -52 0
7 48 59 0
7 -48 -59 0
5 48 60 0
5 -48 -60 0
7 49 51 0
7 -49 -51 0
6 49 55 0
6 -49 -55 0
7 49 56 0
7 -49 -56 0
6 49 58 0
6 -49 -58 0
2 50 54 0
2 -50 -54 0
6 50 56 0
6 -50 -56 0
1 51 54 0
1 -51 -54 0
8 51 59 0
8 -51 -59 0
6 52 56 0
6 -52 -56 0
9 52 58 0
9 -52 -58 0
6 53 55 0
6 -53 -55 0
2 53 56 0
2 -53 -56 0
5 53 60 0
5 -53 -60 0
6 54 57 0
6 -54 -57 0
1 54 59 0
1 -54 -59 0
9 55 59 0
9 -55 -59 0
4 55 60 0
4 -55 -60 0
7 56 57 0
7 -56 -57 0
5 57 59 0
5 -57 -59 0
2 57 60 0
2 -57 -60 0
5 58 59 0
5 -58 -59 0
